Maximize
  - 2.9561293589688 edge_0_1_0_0 - 4.5399999550804 edge_0_2_0_0
   - 0.02971025948352 edge_0_3_0_0 - 2.2132599982313 edge_0_5_0_0
   - 3.730215188558 edge_0_6_0_0 - 2.4142240346858 edge_0_9_0_0
   + 1.022298425520952 edge_1_3_0_0 + 0.4950478965280079 edge_1_5_0_0
   + 0.2344966369477758 edge_1_6_0_0 - 0.5257369653027247 edge_1_7_0_0
   - 0.6673972394709994 edge_1_9_0_0 + 0.3686379836898451 edge_1_16_0_0
   + 1.831892057463683 edge_2_3_0_0 + 0.9077396317631038 edge_2_6_0_0
   + 0.0626543683230552 edge_2_7_0_0 + 0.0872040831626644 edge_2_8_0_0
   + 0.7091085031271422 edge_2_9_0_0 - 0.4327509198416679 edge_2_11_0_0
   - 0.2704902527829564 edge_2_12_0_0 - 0.4213255435834756 edge_2_13_0_0
   - 0.9648101825462335 edge_2_14_0_0 - 0.2979724877529512 edge_2_15_0_0
   + 1.138349219795835 edge_2_16_0_0 + 2.594678116564342 edge_3_1_0_0
   + 0.1848997065484938 edge_3_2_0_0 + 2.659228822306105 edge_3_5_0_0
   + 1.409589308347231 edge_3_6_0_0 - 0.0148965744273004 edge_3_7_0_0
   - 0.4338209904544677 edge_3_8_0_0 + 0.1517049424479988 edge_3_9_0_0
   - 0.5090986302599037 edge_3_12_0_0 - 0.7144883215442345 edge_3_15_0_0
   + 2.489147679695966 edge_3_16_0_0 + 0.1083006195219108 edge_5_1_0_0
   + 0.5894648409547488 edge_5_3_0_0 + 1.646675980076112 edge_5_6_0_0
   - 0.0903476784265959 edge_5_7_0_0 - 0.4512615484114885 edge_5_9_0_0
   + 0.0446776246999224 edge_5_16_0_0 - 1.000395022193405 edge_6_1_0_0
   - 0.1588741693643107 edge_6_3_0_0 - 0.7028724555552974 edge_6_5_0_0
   - 0.3397219206185115 edge_7_3_0_0 + 0.0450542812094609 edge_7_6_0_0
   + 0.3348961304846951 edge_7_8_0_0 + 0.2959375348402457 edge_7_9_0_0
   + 0.6488161561000431 edge_7_11_0_0 - 0.6557372504200325 edge_7_12_0_0
   - 0.3070393418210656 edge_7_13_0_0 - 0.2198746511402629 edge_7_14_0_0
   - 0.4815329434516004 edge_7_15_0_0 + 0.177637016510808 edge_7_16_0_0
   + 0.0595282676666405 edge_8_7_0_0 - 0.4331405313263361 edge_8_12_0_0
   - 1.183676069482914 edge_8_14_0_0 - 0.202118716197683 edge_9_1_0_0
   + 0.0725661737475278 edge_9_2_0_0 - 0.0408821610313869 edge_9_3_0_0
   + 0.0971892660208726 edge_9_6_0_0 + 1.317416188680397 edge_9_7_0_0
   + 1.937353453900857 edge_9_8_0_0 + 0.1353317801496919 edge_9_11_0_0
   + 0.5224222912495938 edge_9_12_0_0 + 0.9609799161707433 edge_9_13_0_0
   - 0.1303236495942269 edge_9_14_0_0 + 0.0900340884848213 edge_9_15_0_0
   + 0.9896909670293803 edge_9_16_0_0 - 0.5575755188729122 edge_11_12_0_0
   - 0.5400663160805436 edge_11_14_0_0 - 0.9412502517442589 edge_11_15_0_0
   + 0.2016755376726066 edge_12_8_0_0 + 0.6960788895921375 edge_12_11_0_0
   + 0.0470318014419535 edge_12_13_0_0 - 0.3664255949122963 edge_12_14_0_0
   - 0.5356774779383292 edge_12_15_0_0 - 0.601781598691783 edge_13_7_0_0
   - 0.7858253986699473 edge_13_8_0_0 + 0.2909409815608075 edge_13_11_0_0
   + 0.5292359569291696 edge_13_12_0_0 + 0.0701978319217646 edge_13_14_0_0
   + 1.342537441954405 edge_13_15_0_0 + 0.4818873353416105 edge_13_16_0_0
   + 0.3195275168036311 edge_14_11_0_0 + 0.2221477581107113 edge_14_12_0_0
   - 0.2649913708386536 edge_14_13_0_0 + 0.6232348297405635 edge_14_15_0_0
   - 0.0335507640059386 edge_15_8_0_0 + 0.1275849449618075 edge_15_11_0_0
   + 0.5695348445992374 edge_15_12_0_0 + 0.4309037288894564 edge_15_13_0_0
   + 2.343216928040569 edge_15_14_0_0 + 0.252670459165051 edge_15_16_0_0
   - 0.4604365341018061 edge_16_7_0_0 - 0.3366423627760578 edge_16_9_0_0
Subject To
 one_parent_1: edge_0_1_0_0 + edge_3_1_0_0 + edge_5_1_0_0 + edge_6_1_0_0
   + edge_9_1_0_0 = 1
 consume_one_flow_unit_1: flow_0_1_0_0 - flow_1_3_0_0 - flow_1_5_0_0
   - flow_1_6_0_0 - flow_1_7_0_0 - flow_1_9_0_0 - flow_1_16_0_0
   + flow_3_1_0_0 + flow_5_1_0_0 + flow_6_1_0_0 + flow_9_1_0_0 = 1
 one_parent_2: edge_0_2_0_0 + edge_3_2_0_0 + edge_9_2_0_0 = 1
 consume_one_flow_unit_2: flow_0_2_0_0 - flow_2_3_0_0 - flow_2_6_0_0
   - flow_2_7_0_0 - flow_2_8_0_0 - flow_2_9_0_0 - flow_2_11_0_0
   - flow_2_12_0_0 - flow_2_13_0_0 - flow_2_14_0_0 - flow_2_15_0_0
   - flow_2_16_0_0 + flow_3_2_0_0 + flow_9_2_0_0 = 1
 one_parent_3: edge_0_3_0_0 + edge_1_3_0_0 + edge_2_3_0_0 + edge_5_3_0_0
   + edge_6_3_0_0 + edge_7_3_0_0 + edge_9_3_0_0 = 1
 consume_one_flow_unit_3: flow_0_3_0_0 + flow_1_3_0_0 + flow_2_3_0_0
   - flow_3_1_0_0 - flow_3_2_0_0 - flow_3_5_0_0 - flow_3_6_0_0
   - flow_3_7_0_0 - flow_3_8_0_0 - flow_3_9_0_0 - flow_3_12_0_0
   - flow_3_15_0_0 - flow_3_16_0_0 + flow_5_3_0_0 + flow_6_3_0_0
   + flow_7_3_0_0 + flow_9_3_0_0 = 1
 one_parent_4: = 1
 consume_one_flow_unit_4: = 1
 one_parent_5: edge_0_5_0_0 + edge_1_5_0_0 + edge_3_5_0_0 + edge_6_5_0_0
   = 1
 consume_one_flow_unit_5: flow_0_5_0_0 + flow_1_5_0_0 + flow_3_5_0_0
   - flow_5_1_0_0 - flow_5_3_0_0 - flow_5_6_0_0 - flow_5_7_0_0
   - flow_5_9_0_0 - flow_5_16_0_0 + flow_6_5_0_0 = 1
 one_parent_6: edge_0_6_0_0 + edge_1_6_0_0 + edge_2_6_0_0 + edge_3_6_0_0
   + edge_5_6_0_0 + edge_7_6_0_0 + edge_9_6_0_0 = 1
 consume_one_flow_unit_6: flow_0_6_0_0 + flow_1_6_0_0 + flow_2_6_0_0
   + flow_3_6_0_0 + flow_5_6_0_0 - flow_6_1_0_0 - flow_6_3_0_0
   - flow_6_5_0_0 + flow_7_6_0_0 + flow_9_6_0_0 = 1
 one_parent_7: edge_1_7_0_0 + edge_2_7_0_0 + edge_3_7_0_0 + edge_5_7_0_0
   + edge_8_7_0_0 + edge_9_7_0_0 + edge_13_7_0_0 + edge_16_7_0_0 = 1
 consume_one_flow_unit_7: flow_1_7_0_0 + flow_2_7_0_0 + flow_3_7_0_0
   + flow_5_7_0_0 - flow_7_3_0_0 - flow_7_6_0_0 - flow_7_8_0_0
   - flow_7_9_0_0 - flow_7_11_0_0 - flow_7_12_0_0 - flow_7_13_0_0
   - flow_7_14_0_0 - flow_7_15_0_0 - flow_7_16_0_0 + flow_8_7_0_0
   + flow_9_7_0_0 + flow_13_7_0_0 + flow_16_7_0_0 = 1
 one_parent_8: edge_2_8_0_0 + edge_3_8_0_0 + edge_7_8_0_0 + edge_9_8_0_0
   + edge_12_8_0_0 + edge_13_8_0_0 + edge_15_8_0_0 = 1
 consume_one_flow_unit_8: flow_2_8_0_0 + flow_3_8_0_0 + flow_7_8_0_0
   - flow_8_7_0_0 - flow_8_12_0_0 - flow_8_14_0_0 + flow_9_8_0_0
   + flow_12_8_0_0 + flow_13_8_0_0 + flow_15_8_0_0 = 1
 one_parent_9: edge_0_9_0_0 + edge_1_9_0_0 + edge_2_9_0_0 + edge_3_9_0_0
   + edge_5_9_0_0 + edge_7_9_0_0 + edge_16_9_0_0 = 1
 consume_one_flow_unit_9: flow_0_9_0_0 + flow_1_9_0_0 + flow_2_9_0_0
   + flow_3_9_0_0 + flow_5_9_0_0 + flow_7_9_0_0 - flow_9_1_0_0
   - flow_9_2_0_0 - flow_9_3_0_0 - flow_9_6_0_0 - flow_9_7_0_0
   - flow_9_8_0_0 - flow_9_11_0_0 - flow_9_12_0_0 - flow_9_13_0_0
   - flow_9_14_0_0 - flow_9_15_0_0 - flow_9_16_0_0 + flow_16_9_0_0 = 1
 one_parent_10: = 1
 consume_one_flow_unit_10: = 1
 one_parent_11: edge_2_11_0_0 + edge_7_11_0_0 + edge_9_11_0_0
   + edge_12_11_0_0 + edge_13_11_0_0 + edge_14_11_0_0 + edge_15_11_0_0 = 1
 consume_one_flow_unit_11: flow_2_11_0_0 + flow_7_11_0_0 + flow_9_11_0_0
   - flow_11_12_0_0 - flow_11_14_0_0 - flow_11_15_0_0 + flow_12_11_0_0
   + flow_13_11_0_0 + flow_14_11_0_0 + flow_15_11_0_0 = 1
 one_parent_12: edge_2_12_0_0 + edge_3_12_0_0 + edge_7_12_0_0
   + edge_8_12_0_0 + edge_9_12_0_0 + edge_11_12_0_0 + edge_13_12_0_0
   + edge_14_12_0_0 + edge_15_12_0_0 = 1
 consume_one_flow_unit_12: flow_2_12_0_0 + flow_3_12_0_0 + flow_7_12_0_0
   + flow_8_12_0_0 + flow_9_12_0_0 + flow_11_12_0_0 - flow_12_8_0_0
   - flow_12_11_0_0 - flow_12_13_0_0 - flow_12_14_0_0 - flow_12_15_0_0
   + flow_13_12_0_0 + flow_14_12_0_0 + flow_15_12_0_0 = 1
 one_parent_13: edge_2_13_0_0 + edge_7_13_0_0 + edge_9_13_0_0
   + edge_12_13_0_0 + edge_14_13_0_0 + edge_15_13_0_0 = 1
 consume_one_flow_unit_13: flow_2_13_0_0 + flow_7_13_0_0 + flow_9_13_0_0
   + flow_12_13_0_0 - flow_13_7_0_0 - flow_13_8_0_0 - flow_13_11_0_0
   - flow_13_12_0_0 - flow_13_14_0_0 - flow_13_15_0_0 - flow_13_16_0_0
   + flow_14_13_0_0 + flow_15_13_0_0 = 1
 one_parent_14: edge_2_14_0_0 + edge_7_14_0_0 + edge_8_14_0_0
   + edge_9_14_0_0 + edge_11_14_0_0 + edge_12_14_0_0 + edge_13_14_0_0
   + edge_15_14_0_0 = 1
 consume_one_flow_unit_14: flow_2_14_0_0 + flow_7_14_0_0 + flow_8_14_0_0
   + flow_9_14_0_0 + flow_11_14_0_0 + flow_12_14_0_0 + flow_13_14_0_0
   - flow_14_11_0_0 - flow_14_12_0_0 - flow_14_13_0_0 - flow_14_15_0_0
   + flow_15_14_0_0 = 1
 one_parent_15: edge_2_15_0_0 + edge_3_15_0_0 + edge_7_15_0_0
   + edge_9_15_0_0 + edge_11_15_0_0 + edge_12_15_0_0 + edge_13_15_0_0
   + edge_14_15_0_0 = 1
 consume_one_flow_unit_15: flow_2_15_0_0 + flow_3_15_0_0 + flow_7_15_0_0
   + flow_9_15_0_0 + flow_11_15_0_0 + flow_12_15_0_0 + flow_13_15_0_0
   + flow_14_15_0_0 - flow_15_8_0_0 - flow_15_11_0_0 - flow_15_12_0_0
   - flow_15_13_0_0 - flow_15_14_0_0 - flow_15_16_0_0 = 1
 one_parent_16: edge_1_16_0_0 + edge_2_16_0_0 + edge_3_16_0_0
   + edge_5_16_0_0 + edge_7_16_0_0 + edge_9_16_0_0 + edge_13_16_0_0
   + edge_15_16_0_0 = 1
 consume_one_flow_unit_16: flow_1_16_0_0 + flow_2_16_0_0 + flow_3_16_0_0
   + flow_5_16_0_0 + flow_7_16_0_0 + flow_9_16_0_0 + flow_13_16_0_0
   + flow_15_16_0_0 - flow_16_7_0_0 - flow_16_9_0_0 = 1
 root_flow: flow_0_1_0_0 + flow_0_2_0_0 + flow_0_3_0_0 + flow_0_5_0_0
   + flow_0_6_0_0 + flow_0_9_0_0 = 16
 inactive_no_flow_0_1_0_0: flow_0_1_0_0 - 1000 edge_0_1_0_0 <= 0
 inactive_no_flow_0_2_0_0: flow_0_2_0_0 - 1000 edge_0_2_0_0 <= 0
 inactive_no_flow_0_3_0_0: flow_0_3_0_0 - 1000 edge_0_3_0_0 <= 0
 inactive_no_flow_0_5_0_0: flow_0_5_0_0 - 1000 edge_0_5_0_0 <= 0
 inactive_no_flow_0_6_0_0: flow_0_6_0_0 - 1000 edge_0_6_0_0 <= 0
 inactive_no_flow_0_9_0_0: flow_0_9_0_0 - 1000 edge_0_9_0_0 <= 0
 inactive_no_flow_1_3_0_0: flow_1_3_0_0 - 1000 edge_1_3_0_0 <= 0
 inactive_no_flow_1_5_0_0: flow_1_5_0_0 - 1000 edge_1_5_0_0 <= 0
 inactive_no_flow_1_6_0_0: flow_1_6_0_0 - 1000 edge_1_6_0_0 <= 0
 inactive_no_flow_1_7_0_0: flow_1_7_0_0 - 1000 edge_1_7_0_0 <= 0
 inactive_no_flow_1_9_0_0: flow_1_9_0_0 - 1000 edge_1_9_0_0 <= 0
 inactive_no_flow_1_16_0_0: flow_1_16_0_0 - 1000 edge_1_16_0_0 <= 0
 inactive_no_flow_2_3_0_0: flow_2_3_0_0 - 1000 edge_2_3_0_0 <= 0
 inactive_no_flow_2_6_0_0: flow_2_6_0_0 - 1000 edge_2_6_0_0 <= 0
 inactive_no_flow_2_7_0_0: flow_2_7_0_0 - 1000 edge_2_7_0_0 <= 0
 inactive_no_flow_2_8_0_0: flow_2_8_0_0 - 1000 edge_2_8_0_0 <= 0
 inactive_no_flow_2_9_0_0: flow_2_9_0_0 - 1000 edge_2_9_0_0 <= 0
 inactive_no_flow_2_11_0_0: flow_2_11_0_0 - 1000 edge_2_11_0_0 <= 0
 inactive_no_flow_2_12_0_0: flow_2_12_0_0 - 1000 edge_2_12_0_0 <= 0
 inactive_no_flow_2_13_0_0: flow_2_13_0_0 - 1000 edge_2_13_0_0 <= 0
 inactive_no_flow_2_14_0_0: flow_2_14_0_0 - 1000 edge_2_14_0_0 <= 0
 inactive_no_flow_2_15_0_0: flow_2_15_0_0 - 1000 edge_2_15_0_0 <= 0
 inactive_no_flow_2_16_0_0: flow_2_16_0_0 - 1000 edge_2_16_0_0 <= 0
 inactive_no_flow_3_1_0_0: flow_3_1_0_0 - 1000 edge_3_1_0_0 <= 0
 inactive_no_flow_3_2_0_0: flow_3_2_0_0 - 1000 edge_3_2_0_0 <= 0
 inactive_no_flow_3_5_0_0: flow_3_5_0_0 - 1000 edge_3_5_0_0 <= 0
 inactive_no_flow_3_6_0_0: flow_3_6_0_0 - 1000 edge_3_6_0_0 <= 0
 inactive_no_flow_3_7_0_0: flow_3_7_0_0 - 1000 edge_3_7_0_0 <= 0
 inactive_no_flow_3_8_0_0: flow_3_8_0_0 - 1000 edge_3_8_0_0 <= 0
 inactive_no_flow_3_9_0_0: flow_3_9_0_0 - 1000 edge_3_9_0_0 <= 0
 inactive_no_flow_3_12_0_0: flow_3_12_0_0 - 1000 edge_3_12_0_0 <= 0
 inactive_no_flow_3_15_0_0: flow_3_15_0_0 - 1000 edge_3_15_0_0 <= 0
 inactive_no_flow_3_16_0_0: flow_3_16_0_0 - 1000 edge_3_16_0_0 <= 0
 inactive_no_flow_5_1_0_0: flow_5_1_0_0 - 1000 edge_5_1_0_0 <= 0
 inactive_no_flow_5_3_0_0: flow_5_3_0_0 - 1000 edge_5_3_0_0 <= 0
 inactive_no_flow_5_6_0_0: flow_5_6_0_0 - 1000 edge_5_6_0_0 <= 0
 inactive_no_flow_5_7_0_0: flow_5_7_0_0 - 1000 edge_5_7_0_0 <= 0
 inactive_no_flow_5_9_0_0: flow_5_9_0_0 - 1000 edge_5_9_0_0 <= 0
 inactive_no_flow_5_16_0_0: flow_5_16_0_0 - 1000 edge_5_16_0_0 <= 0
 inactive_no_flow_6_1_0_0: flow_6_1_0_0 - 1000 edge_6_1_0_0 <= 0
 inactive_no_flow_6_3_0_0: flow_6_3_0_0 - 1000 edge_6_3_0_0 <= 0
 inactive_no_flow_6_5_0_0: flow_6_5_0_0 - 1000 edge_6_5_0_0 <= 0
 inactive_no_flow_7_3_0_0: flow_7_3_0_0 - 1000 edge_7_3_0_0 <= 0
 inactive_no_flow_7_6_0_0: flow_7_6_0_0 - 1000 edge_7_6_0_0 <= 0
 inactive_no_flow_7_8_0_0: flow_7_8_0_0 - 1000 edge_7_8_0_0 <= 0
 inactive_no_flow_7_9_0_0: flow_7_9_0_0 - 1000 edge_7_9_0_0 <= 0
 inactive_no_flow_7_11_0_0: flow_7_11_0_0 - 1000 edge_7_11_0_0 <= 0
 inactive_no_flow_7_12_0_0: flow_7_12_0_0 - 1000 edge_7_12_0_0 <= 0
 inactive_no_flow_7_13_0_0: flow_7_13_0_0 - 1000 edge_7_13_0_0 <= 0
 inactive_no_flow_7_14_0_0: flow_7_14_0_0 - 1000 edge_7_14_0_0 <= 0
 inactive_no_flow_7_15_0_0: flow_7_15_0_0 - 1000 edge_7_15_0_0 <= 0
 inactive_no_flow_7_16_0_0: flow_7_16_0_0 - 1000 edge_7_16_0_0 <= 0
 inactive_no_flow_8_7_0_0: flow_8_7_0_0 - 1000 edge_8_7_0_0 <= 0
 inactive_no_flow_8_12_0_0: flow_8_12_0_0 - 1000 edge_8_12_0_0 <= 0
 inactive_no_flow_8_14_0_0: flow_8_14_0_0 - 1000 edge_8_14_0_0 <= 0
 inactive_no_flow_9_1_0_0: flow_9_1_0_0 - 1000 edge_9_1_0_0 <= 0
 inactive_no_flow_9_2_0_0: flow_9_2_0_0 - 1000 edge_9_2_0_0 <= 0
 inactive_no_flow_9_3_0_0: flow_9_3_0_0 - 1000 edge_9_3_0_0 <= 0
 inactive_no_flow_9_6_0_0: flow_9_6_0_0 - 1000 edge_9_6_0_0 <= 0
 inactive_no_flow_9_7_0_0: flow_9_7_0_0 - 1000 edge_9_7_0_0 <= 0
 inactive_no_flow_9_8_0_0: flow_9_8_0_0 - 1000 edge_9_8_0_0 <= 0
 inactive_no_flow_9_11_0_0: flow_9_11_0_0 - 1000 edge_9_11_0_0 <= 0
 inactive_no_flow_9_12_0_0: flow_9_12_0_0 - 1000 edge_9_12_0_0 <= 0
 inactive_no_flow_9_13_0_0: flow_9_13_0_0 - 1000 edge_9_13_0_0 <= 0
 inactive_no_flow_9_14_0_0: flow_9_14_0_0 - 1000 edge_9_14_0_0 <= 0
 inactive_no_flow_9_15_0_0: flow_9_15_0_0 - 1000 edge_9_15_0_0 <= 0
 inactive_no_flow_9_16_0_0: flow_9_16_0_0 - 1000 edge_9_16_0_0 <= 0
 inactive_no_flow_11_12_0_0: flow_11_12_0_0 - 1000 edge_11_12_0_0 <= 0
 inactive_no_flow_11_14_0_0: flow_11_14_0_0 - 1000 edge_11_14_0_0 <= 0
 inactive_no_flow_11_15_0_0: flow_11_15_0_0 - 1000 edge_11_15_0_0 <= 0
 inactive_no_flow_12_8_0_0: flow_12_8_0_0 - 1000 edge_12_8_0_0 <= 0
 inactive_no_flow_12_11_0_0: flow_12_11_0_0 - 1000 edge_12_11_0_0 <= 0
 inactive_no_flow_12_13_0_0: flow_12_13_0_0 - 1000 edge_12_13_0_0 <= 0
 inactive_no_flow_12_14_0_0: flow_12_14_0_0 - 1000 edge_12_14_0_0 <= 0
 inactive_no_flow_12_15_0_0: flow_12_15_0_0 - 1000 edge_12_15_0_0 <= 0
 inactive_no_flow_13_7_0_0: flow_13_7_0_0 - 1000 edge_13_7_0_0 <= 0
 inactive_no_flow_13_8_0_0: flow_13_8_0_0 - 1000 edge_13_8_0_0 <= 0
 inactive_no_flow_13_11_0_0: flow_13_11_0_0 - 1000 edge_13_11_0_0 <= 0
 inactive_no_flow_13_12_0_0: flow_13_12_0_0 - 1000 edge_13_12_0_0 <= 0
 inactive_no_flow_13_14_0_0: flow_13_14_0_0 - 1000 edge_13_14_0_0 <= 0
 inactive_no_flow_13_15_0_0: flow_13_15_0_0 - 1000 edge_13_15_0_0 <= 0
 inactive_no_flow_13_16_0_0: flow_13_16_0_0 - 1000 edge_13_16_0_0 <= 0
 inactive_no_flow_14_11_0_0: flow_14_11_0_0 - 1000 edge_14_11_0_0 <= 0
 inactive_no_flow_14_12_0_0: flow_14_12_0_0 - 1000 edge_14_12_0_0 <= 0
 inactive_no_flow_14_13_0_0: flow_14_13_0_0 - 1000 edge_14_13_0_0 <= 0
 inactive_no_flow_14_15_0_0: flow_14_15_0_0 - 1000 edge_14_15_0_0 <= 0
 inactive_no_flow_15_8_0_0: flow_15_8_0_0 - 1000 edge_15_8_0_0 <= 0
 inactive_no_flow_15_11_0_0: flow_15_11_0_0 - 1000 edge_15_11_0_0 <= 0
 inactive_no_flow_15_12_0_0: flow_15_12_0_0 - 1000 edge_15_12_0_0 <= 0
 inactive_no_flow_15_13_0_0: flow_15_13_0_0 - 1000 edge_15_13_0_0 <= 0
 inactive_no_flow_15_14_0_0: flow_15_14_0_0 - 1000 edge_15_14_0_0 <= 0
 inactive_no_flow_15_16_0_0: flow_15_16_0_0 - 1000 edge_15_16_0_0 <= 0
 inactive_no_flow_16_7_0_0: flow_16_7_0_0 - 1000 edge_16_7_0_0 <= 0
 inactive_no_flow_16_9_0_0: flow_16_9_0_0 - 1000 edge_16_9_0_0 <= 0
Bounds
Binaries
 edge_0_1_0_0 edge_0_2_0_0 edge_0_3_0_0 edge_0_5_0_0 edge_0_6_0_0
 edge_0_9_0_0 edge_1_3_0_0 edge_1_5_0_0 edge_1_6_0_0 edge_1_7_0_0
 edge_1_9_0_0 edge_1_16_0_0 edge_2_3_0_0 edge_2_6_0_0 edge_2_7_0_0
 edge_2_8_0_0 edge_2_9_0_0 edge_2_11_0_0 edge_2_12_0_0 edge_2_13_0_0
 edge_2_14_0_0 edge_2_15_0_0 edge_2_16_0_0 edge_3_1_0_0 edge_3_2_0_0
 edge_3_5_0_0 edge_3_6_0_0 edge_3_7_0_0 edge_3_8_0_0 edge_3_9_0_0
 edge_3_12_0_0 edge_3_15_0_0 edge_3_16_0_0 edge_5_1_0_0 edge_5_3_0_0
 edge_5_6_0_0 edge_5_7_0_0 edge_5_9_0_0 edge_5_16_0_0 edge_6_1_0_0
 edge_6_3_0_0 edge_6_5_0_0 edge_7_3_0_0 edge_7_6_0_0 edge_7_8_0_0
 edge_7_9_0_0 edge_7_11_0_0 edge_7_12_0_0 edge_7_13_0_0 edge_7_14_0_0
 edge_7_15_0_0 edge_7_16_0_0 edge_8_7_0_0 edge_8_12_0_0 edge_8_14_0_0
 edge_9_1_0_0 edge_9_2_0_0 edge_9_3_0_0 edge_9_6_0_0 edge_9_7_0_0
 edge_9_8_0_0 edge_9_11_0_0 edge_9_12_0_0 edge_9_13_0_0 edge_9_14_0_0
 edge_9_15_0_0 edge_9_16_0_0 edge_11_12_0_0 edge_11_14_0_0 edge_11_15_0_0
 edge_12_8_0_0 edge_12_11_0_0 edge_12_13_0_0 edge_12_14_0_0 edge_12_15_0_0
 edge_13_7_0_0 edge_13_8_0_0 edge_13_11_0_0 edge_13_12_0_0 edge_13_14_0_0
 edge_13_15_0_0 edge_13_16_0_0 edge_14_11_0_0 edge_14_12_0_0 edge_14_13_0_0
 edge_14_15_0_0 edge_15_8_0_0 edge_15_11_0_0 edge_15_12_0_0 edge_15_13_0_0
 edge_15_14_0_0 edge_15_16_0_0 edge_16_7_0_0 edge_16_9_0_0
End
